% Logging successfully configured
%%%mzn-stat: initTime=0.155602995
%%%mzn-stat: objective=610
%%%mzn-stat: nodes=447
%%%mzn-stat: restarts=0
%%%mzn-stat: peakDepth=427
%%%mzn-stat: solveTime=0.003659433
%%%mzn-stat: variables=851
%%%mzn-stat: propagators=1825
%%%mzn-stat: failures=14
%%%mzn-stat: propagations=9292
%%%mzn-stat: nogoods=14
%%%mzn-stat: numAtomicConstraintsPropagated=0
%%%mzn-stat: circuitNumber1226PropagationsThatFoundConflict=0
%%%mzn-stat: circuitNumber1226TotalFixedEdgesAtConflict=0
%%%mzn-stat: circuitNumber1226NumberOfConflicts=0
%%%mzn-stat: circuitNumber1226PropagationsThatPruned=5
%%%mzn-stat: circuitNumber1226PropagationsTotal=51
%%%mzn-stat: AverageConflictSize=4.071428571428571
%%%mzn-stat: NumUnitNogoodsLearned=0
%%%mzn-stat: AverageLearnedNogoodLength=29.571428571428573
%%%mzn-stat: AverageBacktrackAmount=0
%%%mzn-stat: AverageLbd=14.5
%%%mzn-stat: 2AutonomousSearchNumBackupCalled=393
%%%mzn-stat: 2AutonomousSearchNumPredicatesRemoved=0
%%%mzn-stat: 2AutonomousSearchNumCalls=394
%%%mzn-stat: 2AutonomousSearchNumPredicatesAdded=512
%%%mzn-stat: 2AutonomousSearchAverageSizeOfHeap=1.299492385786802
%%%mzn-stat: 2AutonomousSearchNumAssignedPredicatesEncountered=512
%%%mzn-stat-end
maxleg = 610;
succ = array1d(1..50,[2, 7, 11, 5, 10, 9, 8, 12, 13, 27, 26, 28, 15, 25, 3, 17, 29, 19, 20, 23, 1, 16, 24, 40, 6, 21, 30, 22, 37, 38, 35, 41, 18, 4, 43, 49, 46, 39, 45, 44, 47, 31, 48, 14, 42, 36, 50, 33, 32, 34]);
% time elapsed: 21.39 s
----------
%%%mzn-stat: initTime=0.155602995
%%%mzn-stat: objective=364
%%%mzn-stat: nodes=890
%%%mzn-stat: restarts=0
%%%mzn-stat: peakDepth=427
%%%mzn-stat: solveTime=0.007031493
%%%mzn-stat: variables=851
%%%mzn-stat: propagators=1825
%%%mzn-stat: failures=28
%%%mzn-stat: propagations=17502
%%%mzn-stat: nogoods=28
%%%mzn-stat: numAtomicConstraintsPropagated=0
%%%mzn-stat: circuitNumber1226PropagationsThatFoundConflict=3
%%%mzn-stat: circuitNumber1226TotalFixedEdgesAtConflict=119
%%%mzn-stat: circuitNumber1226NumberOfConflicts=3
%%%mzn-stat: circuitNumber1226PropagationsThatPruned=13
%%%mzn-stat: circuitNumber1226PropagationsTotal=116
%%%mzn-stat: AverageConflictSize=3.607142857142857
%%%mzn-stat: NumUnitNogoodsLearned=0
%%%mzn-stat: AverageLearnedNogoodLength=21.785714285714285
%%%mzn-stat: AverageBacktrackAmount=0
%%%mzn-stat: AverageLbd=11.428571428571429
%%%mzn-stat: 2AutonomousSearchNumBackupCalled=778
%%%mzn-stat: 2AutonomousSearchNumPredicatesRemoved=0
%%%mzn-stat: 2AutonomousSearchNumCalls=780
%%%mzn-stat: 2AutonomousSearchNumPredicatesAdded=1207
%%%mzn-stat: 2AutonomousSearchAverageSizeOfHeap=1.8653846153846154
%%%mzn-stat: 2AutonomousSearchNumAssignedPredicatesEncountered=1455
%%%mzn-stat-end
maxleg = 364;
succ = array1d(1..50,[2, 7, 11, 5, 10, 9, 8, 14, 13, 12, 26, 28, 15, 25, 3, 17, 29, 19, 20, 23, 1, 16, 24, 47, 40, 31, 4, 22, 37, 27, 42, 35, 18, 33, 43, 49, 46, 30, 38, 44, 21, 45, 48, 6, 39, 36, 41, 50, 32, 34]);
% time elapsed: 21.39 s
----------
%%%mzn-stat: initTime=0.155602995
%%%mzn-stat: objective=336
%%%mzn-stat: nodes=1288
%%%mzn-stat: restarts=0
%%%mzn-stat: peakDepth=427
%%%mzn-stat: solveTime=0.008614626
%%%mzn-stat: variables=851
%%%mzn-stat: propagators=1825
%%%mzn-stat: failures=29
%%%mzn-stat: propagations=21371
%%%mzn-stat: nogoods=29
%%%mzn-stat: numAtomicConstraintsPropagated=0
%%%mzn-stat: circuitNumber1226PropagationsThatFoundConflict=4
%%%mzn-stat: circuitNumber1226TotalFixedEdgesAtConflict=166
%%%mzn-stat: circuitNumber1226NumberOfConflicts=4
%%%mzn-stat: circuitNumber1226PropagationsThatPruned=16
%%%mzn-stat: circuitNumber1226PropagationsTotal=156
%%%mzn-stat: AverageConflictSize=3.5517241379310347
%%%mzn-stat: NumUnitNogoodsLearned=0
%%%mzn-stat: AverageLearnedNogoodLength=21.20689655172414
%%%mzn-stat: AverageBacktrackAmount=0
%%%mzn-stat: AverageLbd=11.172413793103448
%%%mzn-stat: 2AutonomousSearchNumBackupCalled=1139
%%%mzn-stat: 2AutonomousSearchNumPredicatesRemoved=0
%%%mzn-stat: 2AutonomousSearchNumCalls=1142
%%%mzn-stat: 2AutonomousSearchNumPredicatesAdded=1233
%%%mzn-stat: 2AutonomousSearchAverageSizeOfHeap=2.1007005253940454
%%%mzn-stat: 2AutonomousSearchNumAssignedPredicatesEncountered=2399
%%%mzn-stat-end
maxleg = 336;
succ = array1d(1..50,[2, 7, 11, 5, 10, 9, 8, 14, 13, 12, 26, 28, 15, 25, 3, 17, 29, 19, 20, 23, 1, 16, 24, 47, 40, 31, 4, 22, 37, 27, 42, 35, 18, 33, 43, 49, 46, 48, 30, 44, 21, 45, 38, 6, 39, 36, 41, 50, 32, 34]);
% time elapsed: 21.39 s
----------
